N = 13;
H = 5;
T = 2;

avail = array3d(1..N, 1..H, 1..T, [0, 6, 2, 6, 5, 8, 5, 2, 9, 5, 5, 0, 10, 6, 5, 1, 7, 1, 3, 5, 8, 7, 7, 9, 10, 7, 3, 4, 6, 3, 1, 7, 0, 6, 1, 0, 2, 10, 0, 4, 5, 5, 6, 1, 7, 0, 2, 7, 10, 10, 6, 4, 10, 6, 9, 9, 6, 5, 8, 7, 1, 9, 5, 8, 10, 9, 2, 6, 2, 9, 6, 10, 1, 2, 10, 5, 8, 10, 9, 6, 0, 7, 3, 8, 8, 10, 6, 7, 9, 5, 10, 6, 0, 0, 10, 7, 9, 5, 1, 3, 5, 0, 0, 2, 5, 10, 8, 4, 10, 9, 2, 5, 5, 0, 0, 0, 1, 3, 10, 10, 2, 4, 6, 0, 1, 6, 7, 0, 10, 5]);

r = array2d(1..H, 1..T, [0, 6, 0, 5, 2, 2, 1, 0, 3, 2]);
